Minimize
  - 5 y_0 - 2 y_1 - 4 y_2 - 5 y_3 - 3 y_5 - y_6 - 6 y_7 - 4 y_8 - y_9
   - 5 y_10 - y_11 - 6 y_12 - 3 y_13 - 5 y_14 - 4 y_15 - 5 y_16 - 5 y_17
   - 4 y_18 - 3 y_19 + 72 Constant
Subject To
 c_0: y_1 = 1
 c_1_0: y_0 + y_2 + y_12 + y_19 >= 1
 c_1_1: y_1 + y_4 + y_6 + y_19 >= 1
 c_1_2: y_0 + y_2 + y_19 >= 1
 c_1_3: y_3 >= 1
 c_1_4: y_1 + y_4 + y_6 + y_9 + y_11 >= 1
 c_1_5: y_5 + y_8 + y_13 + y_14 >= 1
 c_1_6: y_1 + y_4 + y_6 + y_9 + y_11 >= 1
 c_1_7: y_7 >= 1
 c_1_8: y_5 + y_8 >= 1
 c_1_9: y_4 + y_6 + y_9 >= 1
 c_1_10: y_10 + y_16 >= 1
 c_1_11: y_4 + y_6 + y_11 >= 1
 c_1_12: y_0 + y_12 >= 1
 c_1_13: y_5 + y_13 + y_14 >= 1
 c_1_14: y_5 + y_13 + y_14 >= 1
 c_1_15: y_15 + y_17 >= 1
 c_1_16: y_10 + y_16 >= 1
 c_1_17: y_15 + y_17 >= 1
 c_1_18: y_18 >= 1
 c_1_19: y_0 + y_1 + y_2 + y_19 >= 1
Bounds
 Constant = 1
Binaries
 y_0 y_1 y_2 y_3 y_4 y_5 y_6 y_7 y_8 y_9 y_10 y_11 y_12 y_13 y_14 y_15 y_16
 y_17 y_18 y_19
End
